&CONTROL
   calculation      = 'scf'
   restart_mode     = 'from_scratch'
   disk_io          = 'none'
   pseudo_dir       = '.'
/
&SYSTEM
   ibrav            = 0
   nat              = 3
   ntyp             = 2
   ecutwfc          = 40
   occupations      = 'smearing'
   degauss          = 0.001
   smearing         = 'gaussian'
   nosym            = T
/
&ELECTRONS
   electron_maxstep = 100
   conv_thr         = 1E-6
   mixing_beta      = 0.7
/

ATOMIC_SPECIES
O 15.999 O_ONCV_PBE-1.2.upf
H 1.008 H_ONCV_PBE-1.2.upf

K_POINTS gamma

CELL_PARAMETERS angstrom
8.00000000000000 0.00000000000000 0.00000000000000
0.00000000000000 8.00000000000000 0.00000000000000
0.00000000000000 0.00000000000000 8.00000000000000

ATOMIC_POSITIONS angstrom
O 3.0000000000 3.0000000000 3.2859286667
H 3.0000000000 3.7632390000 2.6896196667
H 3.0000000000 2.2367610000 2.6896196667
